p cnf 176 448
w 1 1
w 2 0.880797
w 3 0.880797
w 4 1
w 5 0.880797
w 6 0.880797
w 7 1
w 8 0.880797
w 9 0.880797
w 10 1
w 11 0.880797
w 12 0.880797
w 13 1
w 14 0.880797
w 15 0.880797
w 16 1
w 17 0.880797
w 18 0.880797
w 19 1
w 20 0.880797
w 21 0.880797
w 22 1
w 23 0.880797
w 24 1
w 25 0.880797
w 26 0.880797
w 27 1
w 28 0.880797
w 29 0.880797
w 30 1
w 31 0.880797
w 32 0.880797
w 33 1
w 34 0.880797
w 35 0.880797
w 36 1
w 37 0.880797
w 38 0.880797
w 39 1
w 40 0.880797
w 41 0.880797
w 42 1
w 43 0.880797
w 44 0.880797
w 45 1
w 46 0.880797
w 47 1
w 48 0.880797
w 49 0.880797
w 50 1
w 51 0.880797
w 52 0.880797
w 53 1
w 54 0.880797
w 55 0.880797
w 56 1
w 57 0.880797
w 58 0.880797
w 59 1
w 60 0.880797
w 61 0.880797
w 62 1
w 63 0.880797
w 64 0.880797
w 65 1
w 66 0.880797
w 67 0.880797
w 68 1
w 69 0.880797
w 70 1
w 71 0.880797
w 72 0.880797
w 73 1
w 74 0.880797
w 75 0.880797
w 76 1
w 77 0.880797
w 78 0.880797
w 79 1
w 80 0.880797
w 81 0.880797
w 82 1
w 83 0.880797
w 84 0.880797
w 85 1
w 86 0.880797
w 87 0.880797
w 88 1
w 89 0.880797
w 90 0.880797
w 91 1
w 92 0.880797
w 93 1
w 94 0.880797
w 95 0.880797
w 96 1
w 97 0.880797
w 98 0.880797
w 99 1
w 100 0.880797
w 101 0.880797
w 102 1
w 103 0.880797
w 104 0.880797
w 105 1
w 106 0.880797
w 107 0.880797
w 108 1
w 109 0.880797
w 110 0.880797
w 111 1
w 112 0.880797
w 113 0.880797
w 114 1
w 115 0.880797
w 116 1
w 117 0.880797
w 118 0.880797
w 119 1
w 120 0.880797
w 121 0.880797
w 122 1
w 123 0.880797
w 124 0.880797
w 125 1
w 126 0.880797
w 127 0.880797
w 128 1
w 129 0.880797
w 130 0.880797
w 131 1
w 132 0.880797
w 133 0.880797
w 134 1
w 135 0.880797
w 136 0.880797
w 137 1
w 138 0.880797
w 139 1
w 140 0.880797
w 141 0.880797
w 142 1
w 143 0.880797
w 144 0.880797
w 145 1
w 146 0.880797
w 147 0.880797
w 148 1
w 149 0.880797
w 150 0.880797
w 151 1
w 152 0.880797
w 153 0.880797
w 154 1
w 155 0.880797
w 156 0.880797
w 157 1
w 158 0.880797
w 159 0.880797
w 160 1
w 161 0.880797
w 162 1
w 163 0.880797
w 164 1
w 165 0.880797
w 166 1
w 167 0.880797
w 168 1
w 169 0.880797
w 170 1
w 171 0.880797
w 172 1
w 173 0.880797
w 174 1
w 175 0.880797
w 176 1
2 1 4 0
2 -1 -4 0
-2 1 -4 0
-2 -1 4 0
3 1 24 0
3 -1 -24 0
-3 1 -24 0
-3 -1 24 0
5 4 7 0
5 -4 -7 0
-5 4 -7 0
-5 -4 7 0
6 4 27 0
6 -4 -27 0
-6 4 -27 0
-6 -4 27 0
8 7 10 0
8 -7 -10 0
-8 7 -10 0
-8 -7 10 0
9 7 30 0
9 -7 -30 0
-9 7 -30 0
-9 -7 30 0
11 10 13 0
11 -10 -13 0
-11 10 -13 0
-11 -10 13 0
12 10 33 0
12 -10 -33 0
-12 10 -33 0
-12 -10 33 0
14 13 16 0
14 -13 -16 0
-14 13 -16 0
-14 -13 16 0
15 13 36 0
15 -13 -36 0
-15 13 -36 0
-15 -13 36 0
17 16 19 0
17 -16 -19 0
-17 16 -19 0
-17 -16 19 0
18 16 39 0
18 -16 -39 0
-18 16 -39 0
-18 -16 39 0
20 19 22 0
20 -19 -22 0
-20 19 -22 0
-20 -19 22 0
21 19 42 0
21 -19 -42 0
-21 19 -42 0
-21 -19 42 0
23 22 45 0
23 -22 -45 0
-23 22 -45 0
-23 -22 45 0
25 24 27 0
25 -24 -27 0
-25 24 -27 0
-25 -24 27 0
26 24 47 0
26 -24 -47 0
-26 24 -47 0
-26 -24 47 0
28 27 30 0
28 -27 -30 0
-28 27 -30 0
-28 -27 30 0
29 27 50 0
29 -27 -50 0
-29 27 -50 0
-29 -27 50 0
31 30 33 0
31 -30 -33 0
-31 30 -33 0
-31 -30 33 0
32 30 53 0
32 -30 -53 0
-32 30 -53 0
-32 -30 53 0
34 33 36 0
34 -33 -36 0
-34 33 -36 0
-34 -33 36 0
35 33 56 0
35 -33 -56 0
-35 33 -56 0
-35 -33 56 0
37 36 39 0
37 -36 -39 0
-37 36 -39 0
-37 -36 39 0
38 36 59 0
38 -36 -59 0
-38 36 -59 0
-38 -36 59 0
40 39 42 0
40 -39 -42 0
-40 39 -42 0
-40 -39 42 0
41 39 62 0
41 -39 -62 0
-41 39 -62 0
-41 -39 62 0
43 42 45 0
43 -42 -45 0
-43 42 -45 0
-43 -42 45 0
44 42 65 0
44 -42 -65 0
-44 42 -65 0
-44 -42 65 0
46 45 68 0
46 -45 -68 0
-46 45 -68 0
-46 -45 68 0
48 47 50 0
48 -47 -50 0
-48 47 -50 0
-48 -47 50 0
49 47 70 0
49 -47 -70 0
-49 47 -70 0
-49 -47 70 0
51 50 53 0
51 -50 -53 0
-51 50 -53 0
-51 -50 53 0
52 50 73 0
52 -50 -73 0
-52 50 -73 0
-52 -50 73 0
54 53 56 0
54 -53 -56 0
-54 53 -56 0
-54 -53 56 0
55 53 76 0
55 -53 -76 0
-55 53 -76 0
-55 -53 76 0
57 56 59 0
57 -56 -59 0
-57 56 -59 0
-57 -56 59 0
58 56 79 0
58 -56 -79 0
-58 56 -79 0
-58 -56 79 0
60 59 62 0
60 -59 -62 0
-60 59 -62 0
-60 -59 62 0
61 59 82 0
61 -59 -82 0
-61 59 -82 0
-61 -59 82 0
63 62 65 0
63 -62 -65 0
-63 62 -65 0
-63 -62 65 0
64 62 85 0
64 -62 -85 0
-64 62 -85 0
-64 -62 85 0
66 65 68 0
66 -65 -68 0
-66 65 -68 0
-66 -65 68 0
67 65 88 0
67 -65 -88 0
-67 65 -88 0
-67 -65 88 0
69 68 91 0
69 -68 -91 0
-69 68 -91 0
-69 -68 91 0
71 70 73 0
71 -70 -73 0
-71 70 -73 0
-71 -70 73 0
72 70 93 0
72 -70 -93 0
-72 70 -93 0
-72 -70 93 0
74 73 76 0
74 -73 -76 0
-74 73 -76 0
-74 -73 76 0
75 73 96 0
75 -73 -96 0
-75 73 -96 0
-75 -73 96 0
77 76 79 0
77 -76 -79 0
-77 76 -79 0
-77 -76 79 0
78 76 99 0
78 -76 -99 0
-78 76 -99 0
-78 -76 99 0
80 79 82 0
80 -79 -82 0
-80 79 -82 0
-80 -79 82 0
81 79 102 0
81 -79 -102 0
-81 79 -102 0
-81 -79 102 0
83 82 85 0
83 -82 -85 0
-83 82 -85 0
-83 -82 85 0
84 82 105 0
84 -82 -105 0
-84 82 -105 0
-84 -82 105 0
86 85 88 0
86 -85 -88 0
-86 85 -88 0
-86 -85 88 0
87 85 108 0
87 -85 -108 0
-87 85 -108 0
-87 -85 108 0
89 88 91 0
89 -88 -91 0
-89 88 -91 0
-89 -88 91 0
90 88 111 0
90 -88 -111 0
-90 88 -111 0
-90 -88 111 0
92 91 114 0
92 -91 -114 0
-92 91 -114 0
-92 -91 114 0
94 93 96 0
94 -93 -96 0
-94 93 -96 0
-94 -93 96 0
95 93 116 0
95 -93 -116 0
-95 93 -116 0
-95 -93 116 0
97 96 99 0
97 -96 -99 0
-97 96 -99 0
-97 -96 99 0
98 96 119 0
98 -96 -119 0
-98 96 -119 0
-98 -96 119 0
100 99 102 0
100 -99 -102 0
-100 99 -102 0
-100 -99 102 0
101 99 122 0
101 -99 -122 0
-101 99 -122 0
-101 -99 122 0
103 102 105 0
103 -102 -105 0
-103 102 -105 0
-103 -102 105 0
104 102 125 0
104 -102 -125 0
-104 102 -125 0
-104 -102 125 0
106 105 108 0
106 -105 -108 0
-106 105 -108 0
-106 -105 108 0
107 105 128 0
107 -105 -128 0
-107 105 -128 0
-107 -105 128 0
109 108 111 0
109 -108 -111 0
-109 108 -111 0
-109 -108 111 0
110 108 131 0
110 -108 -131 0
-110 108 -131 0
-110 -108 131 0
112 111 114 0
112 -111 -114 0
-112 111 -114 0
-112 -111 114 0
113 111 134 0
113 -111 -134 0
-113 111 -134 0
-113 -111 134 0
115 114 137 0
115 -114 -137 0
-115 114 -137 0
-115 -114 137 0
117 116 119 0
117 -116 -119 0
-117 116 -119 0
-117 -116 119 0
118 116 139 0
118 -116 -139 0
-118 116 -139 0
-118 -116 139 0
120 119 122 0
120 -119 -122 0
-120 119 -122 0
-120 -119 122 0
121 119 142 0
121 -119 -142 0
-121 119 -142 0
-121 -119 142 0
123 122 125 0
123 -122 -125 0
-123 122 -125 0
-123 -122 125 0
124 122 145 0
124 -122 -145 0
-124 122 -145 0
-124 -122 145 0
126 125 128 0
126 -125 -128 0
-126 125 -128 0
-126 -125 128 0
127 125 148 0
127 -125 -148 0
-127 125 -148 0
-127 -125 148 0
129 128 131 0
129 -128 -131 0
-129 128 -131 0
-129 -128 131 0
130 128 151 0
130 -128 -151 0
-130 128 -151 0
-130 -128 151 0
132 131 134 0
132 -131 -134 0
-132 131 -134 0
-132 -131 134 0
133 131 154 0
133 -131 -154 0
-133 131 -154 0
-133 -131 154 0
135 134 137 0
135 -134 -137 0
-135 134 -137 0
-135 -134 137 0
136 134 157 0
136 -134 -157 0
-136 134 -157 0
-136 -134 157 0
138 137 160 0
138 -137 -160 0
-138 137 -160 0
-138 -137 160 0
140 139 142 0
140 -139 -142 0
-140 139 -142 0
-140 -139 142 0
141 139 162 0
141 -139 -162 0
-141 139 -162 0
-141 -139 162 0
143 142 145 0
143 -142 -145 0
-143 142 -145 0
-143 -142 145 0
144 142 164 0
144 -142 -164 0
-144 142 -164 0
-144 -142 164 0
146 145 148 0
146 -145 -148 0
-146 145 -148 0
-146 -145 148 0
147 145 166 0
147 -145 -166 0
-147 145 -166 0
-147 -145 166 0
149 148 151 0
149 -148 -151 0
-149 148 -151 0
-149 -148 151 0
150 148 168 0
150 -148 -168 0
-150 148 -168 0
-150 -148 168 0
152 151 154 0
152 -151 -154 0
-152 151 -154 0
-152 -151 154 0
153 151 170 0
153 -151 -170 0
-153 151 -170 0
-153 -151 170 0
155 154 157 0
155 -154 -157 0
-155 154 -157 0
-155 -154 157 0
156 154 172 0
156 -154 -172 0
-156 154 -172 0
-156 -154 172 0
158 157 160 0
158 -157 -160 0
-158 157 -160 0
-158 -157 160 0
159 157 174 0
159 -157 -174 0
-159 157 -174 0
-159 -157 174 0
161 160 176 0
161 -160 -176 0
-161 160 -176 0
-161 -160 176 0
163 162 164 0
163 -162 -164 0
-163 162 -164 0
-163 -162 164 0
165 164 166 0
165 -164 -166 0
-165 164 -166 0
-165 -164 166 0
167 166 168 0
167 -166 -168 0
-167 166 -168 0
-167 -166 168 0
169 168 170 0
169 -168 -170 0
-169 168 -170 0
-169 -168 170 0
171 170 172 0
171 -170 -172 0
-171 170 -172 0
-171 -170 172 0
173 172 174 0
173 -172 -174 0
-173 172 -174 0
-173 -172 174 0
175 174 176 0
175 -174 -176 0
-175 174 -176 0
-175 -174 176 0
